# Solution for model GasLib-40
# Objective value = 6.9391838569043671e+01
loadshed[innode_1] 0
loadshed[innode_2] 0
loadshed[innode_3] 0
loadshed[innode_4] 0
loadshed[innode_5] 0
loadshed[innode_6] 0
loadshed[innode_7] 0
loadshed[innode_8] 0
loadshed[source_1] -5.0788925821088515e-02
loadshed[source_2] 1.0474821366655584e-01
loadshed[source_3] 3.8497876416163046e-01
loadshed[sink_1] 7.6913468731538692e-01
loadshed[sink_2] 0
loadshed[sink_3] 0
loadshed[sink_4] 0
loadshed[sink_5] 0
loadshed[sink_6] 0
loadshed[sink_7] 0
loadshed[sink_8] 0
loadshed[sink_9] 5.6509594661686158e-01
loadshed[sink_10] 0
loadshed[sink_11] 0
loadshed[sink_12] 1
loadshed[sink_13] 0
loadshed[sink_14] 0
loadshed[sink_15] 0
loadshed[sink_16] 0
loadshed[sink_17] 0
loadshed[sink_18] 0
loadshed[sink_19] 0
loadshed[sink_20] 0
loadshed[sink_21] 1
loadshed[sink_22] 0
loadshed[sink_23] 0
loadshed[sink_24] 0.908837202136664
loadshed[sink_25] 0
loadshed[sink_26] 0
loadshed[sink_27] 0
loadshed[sink_28] 0
loadshed[sink_29] 0
flow[source_1,sink_3] 1.6611951316886859e+02
flow[innode_1,sink_16] 1.6354166666666970e+01
flow[innode_6,sink_13] 1.7250288653747077e+01
flow[sink_13,sink_14] 8.9612198708040935e-01
flow[sink_14,sink_10] -1.5458044679586465e+01
flow[sink_25,sink_26] 9.1134562731339031e+01
flow[sink_26,sink_9] 0
flow[sink_9,sink_18] -7.1124933730367434e+00
flow[sink_26,sink_4] 7.4780396064672345e+01
flow[sink_4,sink_20] 58.4262293980056
flow[sink_18,sink_6] -2.3466660039703413e+01
flow[sink_25,innode_8] -1.3341117983553227e+02
flow[sink_6,sink_7] -5.9950603174232981e+01
flow[sink_6,sink_22] 2.0129776467862946e+01
flow[sink_7,sink_24] 1.49089159005664
flow[sink_22,sink_1] 3.7756098011962771e+00
flow[sink_24,sink_21] 0
flow[sink_21,sink_12] 0
flow[sink_7,sink_5] -7.7795661430956287e+01
flow[sink_5,sink_17] -9.4149828097622958e+01
flow[sink_17,sink_4] 0
flow[sink_17,sink_8] -1.1050399476428959e+02
flow[sink_3,sink_23] 16.3541666666697
flow[sink_8,sink_20] -1.2685816143095622e+02
flow[sink_25,sink_20] 8.4786098699617469e+01
flow[sink_25,sink_15] -7.6113936915838281e+01
flow[sink_15,sink_29] -5.2830034897946916e+01
flow[sink_29,sink_28] 1.6354166666667879e+01
flow[sink_29,sink_2] 5.5992235351224735e+01
flow[sink_2,sink_15] 3.9638068684557993e+01
flow[sink_29,innode_7] -1.4153060358250593e+02
flow[innode_4,sink_19] 3.6778198288273813e+01
flow[sink_19,innode_3] 6.4520544679586692e+01
flow[innode_4,innode_5] 6.0450679724646193e+01
flow[sink_27,innode_5] -6.0450679724646193e+01
flow[sink_27,sink_19] 4.4096513057979564e+01
flow[sink_10,sink_11] 3.2708333333333641e+01
flow[sink_10,innode_2] 0
flow[sink_10,innode_3] -6.4520544679586692e+01
flow[innode_6,sink_25] -1.7250288653747077e+01
flow[sink_11,innode_1] 1.6354166666666970e+01
flow[sink_19,innode_2] 0
flow[source_3,innode_4] 97.22887801292
flow[source_2,innode_7] 1.4153060358250593e+02
flow[sink_3,innode_8] 1.3341117983553227e+02
pressure[innode_1] 7.5793618823067973e+01
pressure[innode_2] 7.5945320130671519e+01
pressure[innode_3] 7.9380398035924827e+01
pressure[innode_4] 81.01325
pressure[innode_5] 8.0971668834911171e+01
pressure[innode_6] 7.5310877967864343e+01
pressure[innode_7] 81.01325
pressure[innode_8] 8.0457975927430681e+01
pressure[source_1] 81.01325
pressure[source_2] 81.01325
pressure[source_3] 81.01325
pressure[sink_1] 1.01325
pressure[sink_2] 7.5809514287153661e+01
pressure[sink_3] 8.0457975927430681e+01
pressure[sink_4] 5.9384551139089389e+01
pressure[sink_5] 3.5074817008737710e+01
pressure[sink_6] 1.8972309016015478e+00
pressure[sink_7] 2.7202097825739937e+00
pressure[sink_8] 4.6257901472282256e+01
pressure[sink_9] 1.01325
pressure[sink_10] 7.5945320130671519e+01
pressure[sink_11] 7.5793618823067973e+01
pressure[sink_12] 1.01325
pressure[sink_13] 7.5215780009307267e+01
pressure[sink_14] 7.5214176322678668e+01
pressure[sink_15] 75.6801047289882
pressure[sink_16] 74.7719689882503
pressure[sink_17] 4.2088298667506656e+01
pressure[sink_18] 1.2706012091125194e+00
pressure[sink_19] 7.9523271475958680e+01
pressure[sink_20] 5.5098131283311865e+01
pressure[sink_21] 1.01325
pressure[sink_22] 1.2588373956740275e+00
pressure[sink_23] 8.0293257915770880e+01
pressure[sink_24] 1.01325
pressure[sink_25] 7.5310877967864343e+01
pressure[sink_26] 6.8892324235056819e+01
pressure[sink_27] 8.0470039894042216e+01
pressure[sink_28] 7.6932578526053319e+01
pressure[sink_29] 77.2278607996705
interdiction[source_1,sink_3] 0
interdiction[innode_1,sink_16] 0
interdiction[innode_6,sink_13] 0
interdiction[sink_13,sink_14] 0
interdiction[sink_14,sink_10] 0
interdiction[sink_25,sink_26] 0
interdiction[sink_26,sink_9] 1
interdiction[sink_9,sink_18] 0
interdiction[sink_26,sink_4] 0
interdiction[sink_4,sink_20] 0
interdiction[sink_18,sink_6] 0
interdiction[sink_25,innode_8] 0
interdiction[sink_6,sink_7] 0
interdiction[sink_6,sink_22] 0
interdiction[sink_7,sink_24] 0
interdiction[sink_22,sink_1] 0
interdiction[sink_24,sink_21] 0
interdiction[sink_21,sink_12] 0
interdiction[sink_7,sink_5] 0
interdiction[sink_5,sink_17] 0
interdiction[sink_17,sink_4] 1
interdiction[sink_17,sink_8] 0
interdiction[sink_3,sink_23] 0
interdiction[sink_8,sink_20] 0
interdiction[sink_25,sink_20] 0
interdiction[sink_25,sink_15] 0
interdiction[sink_15,sink_29] 0
interdiction[sink_29,sink_28] 0
interdiction[sink_29,sink_2] 0
interdiction[sink_2,sink_15] 0
interdiction[sink_29,innode_7] 0
interdiction[innode_4,sink_19] 0
interdiction[sink_19,innode_3] 0
interdiction[innode_4,innode_5] 0
interdiction[sink_27,innode_5] 0
interdiction[sink_27,sink_19] 0
interdiction[sink_10,sink_11] 0
interdiction[sink_10,innode_2] 0
interdiction[sink_10,innode_3] 0
interdiction[innode_6,sink_25] 0
interdiction[sink_11,innode_1] 0
interdiction[sink_19,innode_2] 1
interdiction[source_3,innode_4] 0
interdiction[source_2,innode_7] 0
interdiction[sink_3,innode_8] 0
WCcheckFlow[source_1,sink_3] 39
WCcheckFlow[innode_1,sink_16] 1
WCcheckFlow[innode_6,sink_13] 13
WCcheckFlow[sink_13,sink_14] 12
WCcheckFlow[sink_14,sink_10] 11
WCcheckFlow[sink_25,sink_26] 15
WCcheckFlow[sink_26,sink_9] 0
WCcheckFlow[sink_9,sink_18] -1
WCcheckFlow[sink_26,sink_4] 14
WCcheckFlow[sink_4,sink_20] 13
WCcheckFlow[sink_18,sink_6] -2
WCcheckFlow[sink_25,innode_8] -36
WCcheckFlow[sink_6,sink_7] -5
WCcheckFlow[sink_6,sink_22] 2
WCcheckFlow[sink_7,sink_24] 3
WCcheckFlow[sink_22,sink_1] 1
WCcheckFlow[sink_24,sink_21] 2
WCcheckFlow[sink_21,sink_12] 1
WCcheckFlow[sink_7,sink_5] -9
WCcheckFlow[sink_5,sink_17] -10
WCcheckFlow[sink_17,sink_4] 0
WCcheckFlow[sink_17,sink_8] -11
WCcheckFlow[sink_3,sink_23] 1
WCcheckFlow[sink_8,sink_20] -12
WCcheckFlow[sink_25,sink_20] 0
WCcheckFlow[sink_25,sink_15] 6
WCcheckFlow[sink_15,sink_29] 5
WCcheckFlow[sink_29,sink_28] 1
WCcheckFlow[sink_29,sink_2] 1
WCcheckFlow[sink_2,sink_15] 0
WCcheckFlow[sink_29,innode_7] 2
WCcheckFlow[innode_4,sink_19] -4
WCcheckFlow[sink_19,innode_3] -5
WCcheckFlow[innode_4,innode_5] 2
WCcheckFlow[sink_27,innode_5] -1
WCcheckFlow[sink_27,sink_19] 0
WCcheckFlow[sink_10,sink_11] 3
WCcheckFlow[sink_10,innode_2] 1
WCcheckFlow[sink_10,innode_3] 6
WCcheckFlow[innode_6,sink_25] -14
WCcheckFlow[sink_11,innode_1] 2
WCcheckFlow[sink_19,innode_2] 0
WCcheckFlow[source_3,innode_4] -1
WCcheckFlow[source_2,innode_7] -1
WCcheckFlow[sink_3,innode_8] 37
